(set-logic QF_S)
(declare-fun var0 () Int)
(declare-fun var1 () Int)
(declare-fun var2 () String)
(declare-fun var3 () String)
(declare-fun var4 () String)
(declare-fun var5 () String)
(declare-fun var6 () Int)
(declare-fun var7 () Int)
(assert (<= var0 var1))
(assert (str.contains var2 var3))
(assert (> (str.indexof var4 var5 var6) (str.to.int var5)))
(assert (str.suffixof (str.at (str.substr var3 var7 var7) (str.indexof var4 var4)) (str.at (str.substr var5 var1 var6) (str.to.int var2))))
(check-sat)